SPARKNaCl/why3-z3/sparknacl-sign.adb_821_35_division_check_1.smt2
;; produced by z3_gnatprove.drv ;;
(set-info :smt-lib-version 2.5)
(set-info :source |VC generated by SPARK 2014|)
(set-info :category industrial)
(set-info :status unknown)
;;; generated by SMT-LIB2 driver
;;; SMT-LIB2 driver: bit-vectors, common part
;;; SMT-LIB2: integer arithmetic
(declare-datatypes ()
  ((bool__ref (bool__refqtmk (bool__content Bool)))))

(declare-sort gf16_normal_limb 0)

;; "to_rep"
(declare-fun to_rep (gf16_normal_limb) (_ BitVec 16))

;; "of_rep"
(declare-fun of_rep ((_ BitVec 16)) gf16_normal_limb)

;; "inversion_axiom"
(assert
  (forall ((x gf16_normal_limb))
    (! (= (of_rep (to_rep x)) x) :pattern ((to_rep x)) )))

;; "range_axiom"
(assert true)

;; "coerce_axiom"
(assert
  (forall ((x (_ BitVec 16)))
    (! (= (to_rep (of_rep x)) x) :pattern ((to_rep (of_rep x))) )))

(declare-sort map1 0)

(declare-datatypes ()
  ((map__ref (map__refqtmk (map__content map1)))))

;; "has_bounds"
(declare-fun has_bounds (map1
  Int
  Int) Bool)

;; "get"
(declare-fun get (map1
  Int) gf16_normal_limb)

(declare-const gf_d map1)

(declare-const gf_i map1)

(declare-sort map2 0)

;; "has_bounds"
(declare-fun has_bounds1 (map2
  Int
  Int) Bool)

;; "get"
(declare-fun get1 (map2
  Int) map1)

(declare-sort byte 0)

;; "to_rep"
(declare-fun to_rep1 (byte) (_ BitVec 8))

;; "of_rep"
(declare-fun of_rep1 ((_ BitVec 8)) byte)

;; "inversion_axiom"
(assert
  (forall ((x byte)) (! (= (of_rep1 (to_rep1 x)) x) :pattern ((to_rep1 x)) )))

;; "range_axiom"
(assert true)

;; "coerce_axiom"
(assert
  (forall ((x (_ BitVec 8)))
    (! (= (to_rep1 (of_rep1 x)) x) :pattern ((to_rep1 (of_rep1 x))) )))

(declare-sort map3 0)

;; "has_bounds"
(declare-fun has_bounds2 (map3
  Int
  Int) Bool)

;; "get"
(declare-fun get2 (map3
  Int) byte)

(declare-const p map3)

;; "oadd"
(declare-fun oadd (map1
  map1) map1)

;; "oadd__function_guard"
(declare-fun oadd__function_guard (map1
  map1
  map1) Bool)

;; "omultiply"
(declare-fun omultiply (map1
  map1) map1)

;; "omultiply__function_guard"
(declare-fun omultiply__function_guard (map1
  map1
  map1) Bool)

;; "osubtract"
(declare-fun osubtract (map1
  map1) map1)

;; "osubtract__function_guard"
(declare-fun osubtract__function_guard (map1
  map1
  map1) Bool)

(declare-const gf_0 map1)

(declare-const gf_1 map1)

;; "oeq"
(declare-fun oeq (map1
  map1) Bool)

;; "pow_2523"
(declare-fun pow_2523 (map1) map1)

;; "pow_2523__function_guard"
(declare-fun pow_2523__function_guard (map1
  map1) Bool)

;; "square"
(declare-fun square (map1) map1)

;; "square__function_guard"
(declare-fun square__function_guard (map1
  map1) Bool)

;; "unpack_25519"
(declare-fun unpack_25519 (map3) map1)

;; "unpack_25519__function_guard"
(declare-fun unpack_25519__function_guard (map1
  map3) Bool)

(declare-const r1 map1)

(declare-const r1_squared map1)

(declare-const num map1)

(declare-const den map1)

(declare-const den_power_2 map1)

(declare-const den_power_4 map1)

(declare-const num_den2 map1)

;; "ada___sparknacl__sign__gf_d__aggregate_def"
(declare-fun ada___sparknacl__sign__gf_d__aggregate_def ((_ BitVec 16)
  (_ BitVec 16)
  (_ BitVec 16)
  (_ BitVec 16)
  (_ BitVec 16)
  (_ BitVec 16)
  (_ BitVec 16)
  (_ BitVec 16)
  (_ BitVec 16)
  (_ BitVec 16)
  (_ BitVec 16)
  (_ BitVec 16)
  (_ BitVec 16)
  (_ BitVec 16)
  (_ BitVec 16)
  (_ BitVec 16)) map1)

;; "ada___sparknacl__sign__gf_i__aggregate_def"
(declare-fun ada___sparknacl__sign__gf_i__aggregate_def ((_ BitVec 16)
  (_ BitVec 16)
  (_ BitVec 16)
  (_ BitVec 16)
  (_ BitVec 16)
  (_ BitVec 16)
  (_ BitVec 16)
  (_ BitVec 16)
  (_ BitVec 16)
  (_ BitVec 16)
  (_ BitVec 16)
  (_ BitVec 16)
  (_ BitVec 16)
  (_ BitVec 16)
  (_ BitVec 16)
  (_ BitVec 16)) map1)

;; "dynamic_invariant"
(define-fun dynamic_invariant ((temp___expr_683 map2) (temp___is_init_679 Bool) (temp___skip_constant_680 Bool) (temp___do_toplevel_681 Bool) (temp___do_typ_inv_682 Bool)) Bool
  (and
    (has_bounds1 temp___expr_683 0 3)
    (forall ((temp___684 Int))
      (=>
        (and (<= 0 temp___684) (<= temp___684 3))
        (has_bounds (get1 temp___expr_683 temp___684) 0 15)))))

;; "sparknacl__gf_0__aggregate_def"
(declare-fun sparknacl__gf_0__aggregate_def ((_ BitVec 16)) map1)

;; "sparknacl__gf_1__aggregate_def"
(declare-fun sparknacl__gf_1__aggregate_def ((_ BitVec 16)
  (_ BitVec 16)) map1)

;; "gf_d__def_axiom"
(assert
  (= gf_d (let ((temp___201 (ada___sparknacl__sign__gf_d__aggregate_def
                              #x78A3
                              #x1359
                              #x4DCA
                              #x75EB
                              #xD8AB
                              #x4141
                              #x0A4D
                              #x0070
                              #xE898
                              #x7779
                              #x4079
                              #x8CC7
                              #xFE73
                              #x2B6F
                              #x6CEE
                              #x5203)))
            (let ((temp___202 temp___201)) temp___202))))

;; "def_axiom"
(assert
  (forall ((temp___182 (_ BitVec 16)) (temp___183 (_ BitVec 16)) (temp___184 (_ BitVec 16)) (temp___185 (_ BitVec 16)) (temp___186 (_ BitVec 16)) (temp___187 (_ BitVec 16)) (temp___188 (_ BitVec 16)) (temp___189 (_ BitVec 16)) (temp___190 (_ BitVec 16)) (temp___191 (_ BitVec 16)) (temp___192 (_ BitVec 16)) (temp___193 (_ BitVec 16)) (temp___194 (_ BitVec 16)) (temp___195 (_ BitVec 16)) (temp___196 (_ BitVec 16)) (temp___197 (_ BitVec 16)))
    (let ((temp___198 (ada___sparknacl__sign__gf_d__aggregate_def
                        temp___182
                        temp___183
                        temp___184
                        temp___185
                        temp___186
                        temp___187
                        temp___188
                        temp___189
                        temp___190
                        temp___191
                        temp___192
                        temp___193
                        temp___194
                        temp___195
                        temp___196
                        temp___197)))
      (and
        (and
          (and
            (= (to_rep (get temp___198 0)) temp___182)
            (= (to_rep (get temp___198 1)) temp___183))
          (and
            (and
              (and
                (and
                  (= (to_rep (get temp___198 2)) temp___184)
                  (= (to_rep (get temp___198 3)) temp___185))
                (and
                  (= (to_rep (get temp___198 4)) temp___186)
                  (= (to_rep (get temp___198 5)) temp___187)))
              (and
                (and
                  (= (to_rep (get temp___198 6)) temp___188)
                  (= (to_rep (get temp___198 7)) temp___189))
                (= (to_rep (get temp___198 8)) temp___190)))
            (and
              (and
                (and
                  (= (to_rep (get temp___198 9)) temp___191)
                  (= (to_rep (get temp___198 10)) temp___192))
                (and
                  (= (to_rep (get temp___198 11)) temp___193)
                  (= (to_rep (get temp___198 12)) temp___194)))
              (and
                (and
                  (= (to_rep (get temp___198 13)) temp___195)
                  (= (to_rep (get temp___198 14)) temp___196))
                (= (to_rep (get temp___198 15)) temp___197)))))
        (=>
          (and
            (and (and (<= 0 0) (<= 0 15)) (and (<= 0 1) (<= 1 15)))
            (and
              (and
                (and
                  (and (and (<= 0 2) (<= 2 15)) (and (<= 0 3) (<= 3 15)))
                  (and (and (<= 0 4) (<= 4 15)) (and (<= 0 5) (<= 5 15))))
                (and
                  (and (and (<= 0 6) (<= 6 15)) (and (<= 0 7) (<= 7 15)))
                  (and (<= 0 8) (<= 8 15))))
              (and
                (and
                  (and (and (<= 0 9) (<= 9 15)) (and (<= 0 10) (<= 10 15)))
                  (and (and (<= 0 11) (<= 11 15)) (and (<= 0 12) (<= 12 15))))
                (and
                  (and (and (<= 0 13) (<= 13 15)) (and (<= 0 14) (<= 14 15)))
                  (and (<= 0 15) (<= 15 15))))))
          (has_bounds temp___198 0 15))))))

;; "gf_i__def_axiom"
(assert
  (= gf_i (let ((temp___222 (ada___sparknacl__sign__gf_i__aggregate_def
                              #xA0B0
                              #x4A0E
                              #x1B27
                              #xC4EE
                              #xE478
                              #xAD2F
                              #x1806
                              #x2F43
                              #xD7A7
                              #x3DFB
                              #x0099
                              #x2B4D
                              #xDF0B
                              #x4FC1
                              #x2480
                              #x2B83)))
            (let ((temp___223 temp___222)) temp___223))))

;; "def_axiom"
(assert
  (forall ((temp___203 (_ BitVec 16)) (temp___204 (_ BitVec 16)) (temp___205 (_ BitVec 16)) (temp___206 (_ BitVec 16)) (temp___207 (_ BitVec 16)) (temp___208 (_ BitVec 16)) (temp___209 (_ BitVec 16)) (temp___210 (_ BitVec 16)) (temp___211 (_ BitVec 16)) (temp___212 (_ BitVec 16)) (temp___213 (_ BitVec 16)) (temp___214 (_ BitVec 16)) (temp___215 (_ BitVec 16)) (temp___216 (_ BitVec 16)) (temp___217 (_ BitVec 16)) (temp___218 (_ BitVec 16)))
    (let ((temp___219 (ada___sparknacl__sign__gf_i__aggregate_def
                        temp___203
                        temp___204
                        temp___205
                        temp___206
                        temp___207
                        temp___208
                        temp___209
                        temp___210
                        temp___211
                        temp___212
                        temp___213
                        temp___214
                        temp___215
                        temp___216
                        temp___217
                        temp___218)))
      (and
        (and
          (and
            (= (to_rep (get temp___219 0)) temp___203)
            (= (to_rep (get temp___219 1)) temp___204))
          (and
            (and
              (and
                (and
                  (= (to_rep (get temp___219 2)) temp___205)
                  (= (to_rep (get temp___219 3)) temp___206))
                (and
                  (= (to_rep (get temp___219 4)) temp___207)
                  (= (to_rep (get temp___219 5)) temp___208)))
              (and
                (and
                  (= (to_rep (get temp___219 6)) temp___209)
                  (= (to_rep (get temp___219 7)) temp___210))
                (= (to_rep (get temp___219 8)) temp___211)))
            (and
              (and
                (and
                  (= (to_rep (get temp___219 9)) temp___212)
                  (= (to_rep (get temp___219 10)) temp___213))
                (and
                  (= (to_rep (get temp___219 11)) temp___214)
                  (= (to_rep (get temp___219 12)) temp___215)))
              (and
                (and
                  (= (to_rep (get temp___219 13)) temp___216)
                  (= (to_rep (get temp___219 14)) temp___217))
                (= (to_rep (get temp___219 15)) temp___218)))))
        (=>
          (and
            (and (and (<= 0 0) (<= 0 15)) (and (<= 0 1) (<= 1 15)))
            (and
              (and
                (and
                  (and (and (<= 0 2) (<= 2 15)) (and (<= 0 3) (<= 3 15)))
                  (and (and (<= 0 4) (<= 4 15)) (and (<= 0 5) (<= 5 15))))
                (and
                  (and (and (<= 0 6) (<= 6 15)) (and (<= 0 7) (<= 7 15)))
                  (and (<= 0 8) (<= 8 15))))
              (and
                (and
                  (and (and (<= 0 9) (<= 9 15)) (and (<= 0 10) (<= 10 15)))
                  (and (and (<= 0 11) (<= 11 15)) (and (<= 0 12) (<= 12 15))))
                (and
                  (and (and (<= 0 13) (<= 13 15)) (and (<= 0 14) (<= 14 15)))
                  (and (<= 0 15) (<= 15 15))))))
          (has_bounds temp___219 0 15))))))

;; "gf_0__def_axiom"
(assert
  (= gf_0 (let ((temp___325 (sparknacl__gf_0__aggregate_def #x0000)))
            (let ((temp___326 temp___325)) temp___326))))

;; "def_axiom"
(assert
  (forall ((temp___321 (_ BitVec 16)))
    (let ((temp___322 (sparknacl__gf_0__aggregate_def temp___321)))
      (and
        (has_bounds temp___322 0 15)
        (forall ((temp___323 Int))
          (! (=>
               (and (<= 0 temp___323) (<= temp___323 15))
               (= (to_rep (get temp___322 temp___323)) temp___321)) :pattern (
          (get
            temp___322
            temp___323)) ))))))

;; "gf_1__def_axiom"
(assert
  (= gf_1 (let ((temp___332 (sparknacl__gf_1__aggregate_def #x0001 #x0000)))
            (let ((temp___333 temp___332)) temp___333))))

;; "def_axiom"
(assert
  (forall ((temp___327 (_ BitVec 16)) (temp___328 (_ BitVec 16)))
    (let ((temp___329 (sparknacl__gf_1__aggregate_def temp___327 temp___328)))
      (and
        (and
          (= (to_rep (get temp___329 0)) temp___327)
          (=> (and (<= 0 0) (<= 0 15)) (has_bounds temp___329 0 15)))
        (forall ((temp___330 Int))
          (! (=>
               (and (<= 0 temp___330) (<= temp___330 15))
               (=>
                 (not (= temp___330 0))
                 (= (to_rep (get temp___329 temp___330)) temp___328))) :pattern (
          (get
            temp___329
            temp___330)) ))))))

;; "oadd__post_axiom"
(assert
  (forall ((param__left map1) (param__right map1))
    (! (=>
         (and (has_bounds param__left 0 15) (has_bounds param__right 0 15))
         (let ((result (oadd param__left param__right)))
           (=>
             (oadd__function_guard result param__left param__right)
             (has_bounds result 0 15)))) :pattern ((oadd
                                                     param__left
                                                     param__right)) )))

;; "omultiply__post_axiom"
(assert
  (forall ((param__left map1) (param__right map1))
    (! (=>
         (and (has_bounds param__left 0 15) (has_bounds param__right 0 15))
         (let ((result (omultiply param__left param__right)))
           (=>
             (omultiply__function_guard result param__left param__right)
             (has_bounds result 0 15)))) :pattern ((omultiply
                                                     param__left
                                                     param__right)) )))

;; "osubtract__post_axiom"
(assert
  (forall ((param__left map1) (param__right map1))
    (! (=>
         (and (has_bounds param__left 0 15) (has_bounds param__right 0 15))
         (let ((result (osubtract param__left param__right)))
           (=>
             (osubtract__function_guard result param__left param__right)
             (has_bounds result 0 15)))) :pattern ((osubtract
                                                     param__left
                                                     param__right)) )))

;; "square__post_axiom"
(assert
  (forall ((param__a map1))
    (! (=>
         (has_bounds param__a 0 15)
         (let ((result (square param__a)))
           (=>
             (square__function_guard result param__a)
             (has_bounds result 0 15)))) :pattern ((square param__a)) )))

;; "unpack_25519__post_axiom"
(assert
  (forall ((param__n map3))
    (! (=>
         (has_bounds2 param__n 0 31)
         (let ((result (unpack_25519 param__n)))
           (=>
             (unpack_25519__function_guard result param__n)
             (has_bounds result 0 15)))) :pattern ((unpack_25519 param__n)) )))

(declare-const r map2)

(declare-const check__ map1)

;; "check__'unused"
(define-fun check__qtunused () map__ref
  (map__refqtmk check__))

;; "Assume"
(assert (has_bounds gf_d 0 15))

(declare-const temp___2223 map1)

;; "H"
(assert (= (to_rep (get temp___2223 0)) #x78A3))

;; "H"
(assert (= (to_rep (get temp___2223 1)) #x1359))

;; "H"
(assert (= (to_rep (get temp___2223 2)) #x4DCA))

;; "H"
(assert (= (to_rep (get temp___2223 3)) #x75EB))

;; "H"
(assert (= (to_rep (get temp___2223 4)) #xD8AB))

;; "H"
(assert (= (to_rep (get temp___2223 5)) #x4141))

;; "H"
(assert (= (to_rep (get temp___2223 6)) #x0A4D))

;; "H"
(assert (= (to_rep (get temp___2223 7)) #x0070))

;; "H"
(assert (= (to_rep (get temp___2223 8)) #xE898))

;; "H"
(assert (= (to_rep (get temp___2223 9)) #x7779))

;; "H"
(assert (= (to_rep (get temp___2223 10)) #x4079))

;; "H"
(assert (= (to_rep (get temp___2223 11)) #x8CC7))

;; "H"
(assert (= (to_rep (get temp___2223 12)) #xFE73))

;; "H"
(assert (= (to_rep (get temp___2223 13)) #x2B6F))

;; "H"
(assert (= (to_rep (get temp___2223 14)) #x6CEE))

;; "H"
(assert (= (to_rep (get temp___2223 15)) #x5203))

;; "H"
(assert (has_bounds temp___2223 0 15))

;; "H"
(assert
  (= temp___2223 (ada___sparknacl__sign__gf_d__aggregate_def
                   #x78A3
                   #x1359
                   #x4DCA
                   #x75EB
                   #xD8AB
                   #x4141
                   #x0A4D
                   #x0070
                   #xE898
                   #x7779
                   #x4079
                   #x8CC7
                   #xFE73
                   #x2B6F
                   #x6CEE
                   #x5203)))

;; "ada___sparknacl__sign__gf_d__aggregate_def'result'unused"
(define-fun ada___sparknacl__sign__gf_d__aggregate_defqtresultqtunused 
  () map1
  temp___2223)

;; "Assume"
(assert (= temp___2223 gf_d))

;; "Assume"
(assert (has_bounds gf_i 0 15))

(declare-const temp___2243 map1)

;; "H"
(assert (= (to_rep (get temp___2243 0)) #xA0B0))

;; "H"
(assert (= (to_rep (get temp___2243 1)) #x4A0E))

;; "H"
(assert (= (to_rep (get temp___2243 2)) #x1B27))

;; "H"
(assert (= (to_rep (get temp___2243 3)) #xC4EE))

;; "H"
(assert (= (to_rep (get temp___2243 4)) #xE478))

;; "H"
(assert (= (to_rep (get temp___2243 5)) #xAD2F))

;; "H"
(assert (= (to_rep (get temp___2243 6)) #x1806))

;; "H"
(assert (= (to_rep (get temp___2243 7)) #x2F43))

;; "H"
(assert (= (to_rep (get temp___2243 8)) #xD7A7))

;; "H"
(assert (= (to_rep (get temp___2243 9)) #x3DFB))

;; "H"
(assert (= (to_rep (get temp___2243 10)) #x0099))

;; "H"
(assert (= (to_rep (get temp___2243 11)) #x2B4D))

;; "H"
(assert (= (to_rep (get temp___2243 12)) #xDF0B))

;; "H"
(assert (= (to_rep (get temp___2243 13)) #x4FC1))

;; "H"
(assert (= (to_rep (get temp___2243 14)) #x2480))

;; "H"
(assert (= (to_rep (get temp___2243 15)) #x2B83))

;; "H"
(assert (has_bounds temp___2243 0 15))

;; "H"
(assert
  (= temp___2243 (ada___sparknacl__sign__gf_i__aggregate_def
                   #xA0B0
                   #x4A0E
                   #x1B27
                   #xC4EE
                   #xE478
                   #xAD2F
                   #x1806
                   #x2F43
                   #xD7A7
                   #x3DFB
                   #x0099
                   #x2B4D
                   #xDF0B
                   #x4FC1
                   #x2480
                   #x2B83)))

;; "ada___sparknacl__sign__gf_i__aggregate_def'result'unused"
(define-fun ada___sparknacl__sign__gf_i__aggregate_defqtresultqtunused 
  () map1
  temp___2243)

;; "Assume"
(assert (= temp___2243 gf_i))

;; "Assume"
(assert (has_bounds gf_0 0 15))

(declare-const temp___2248 map1)

;; "H"
(assert (has_bounds temp___2248 0 15))

;; "H"
(assert
  (forall ((temp___324 Int))
    (! (=>
         (and (<= 0 temp___324) (<= temp___324 15))
         (= (to_rep (get temp___2248 temp___324)) #x0000)) :pattern (
    (get
      temp___2248
      temp___324)) )))

;; "H"
(assert (= temp___2248 (sparknacl__gf_0__aggregate_def #x0000)))

;; "sparknacl__gf_0__aggregate_def'result'unused"
(define-fun sparknacl__gf_0__aggregate_defqtresultqtunused () map1
  temp___2248)

;; "Assume"
(assert (= temp___2248 gf_0))

;; "Assume"
(assert (has_bounds gf_1 0 15))

(declare-const temp___2254 map1)

;; "H"
(assert (= (to_rep (get temp___2254 0)) #x0001))

;; "H"
(assert (has_bounds temp___2254 0 15))

;; "H"
(assert
  (forall ((temp___331 Int))
    (! (=>
         (and (<= 0 temp___331) (<= temp___331 15))
         (=>
           (not (= temp___331 0))
           (= (to_rep (get temp___2254 temp___331)) #x0000))) :pattern (
    (get
      temp___2254
      temp___331)) )))

;; "H"
(assert (= temp___2254 (sparknacl__gf_1__aggregate_def #x0001 #x0000)))

;; "sparknacl__gf_1__aggregate_def'result'unused"
(define-fun sparknacl__gf_1__aggregate_defqtresultqtunused () map1
  temp___2254)

;; "Assume"
(assert (= temp___2254 gf_1))

;; "Assume"
(assert (dynamic_invariant r false false true true))

;; "Assume"
(assert (has_bounds2 p 0 31))

;; "o"
(define-fun o () map3
  p)

;; "ada___sparknacl__sign__unpackneg__r1__assume"
(define-fun ada___sparknacl__sign__unpackneg__r1__assume () map1
  (unpack_25519 o))

;; "H"
(assert
  (unpack_25519__function_guard
    ada___sparknacl__sign__unpackneg__r1__assume
    o))

;; "H"
(assert (has_bounds ada___sparknacl__sign__unpackneg__r1__assume 0 15))

;; "unpack_25519'result'unused"
(define-fun unpack_25519qtresultqtunused () map1
  ada___sparknacl__sign__unpackneg__r1__assume)

;; "Assume"
(assert (= ada___sparknacl__sign__unpackneg__r1__assume r1))

;; "Assume"
(assert (has_bounds r1 0 15))

;; "o"
(define-fun o1 () map1
  r1)

;; "ada___sparknacl__sign__unpackneg__r1_squared__assume"
(define-fun ada___sparknacl__sign__unpackneg__r1_squared__assume () map1
  (square o1))

;; "H"
(assert
  (square__function_guard
    ada___sparknacl__sign__unpackneg__r1_squared__assume
    o1))

;; "H"
(assert
  (has_bounds ada___sparknacl__sign__unpackneg__r1_squared__assume 0 15))

;; "square'result'unused"
(define-fun squareqtresultqtunused () map1
  ada___sparknacl__sign__unpackneg__r1_squared__assume)

;; "Assume"
(assert (= ada___sparknacl__sign__unpackneg__r1_squared__assume r1_squared))

;; "Assume"
(assert (has_bounds r1_squared 0 15))

;; "o"
(define-fun o2 () map1
  gf_1)

;; "o"
(define-fun o3 () map1
  r1_squared)

;; "ada___sparknacl__sign__unpackneg__num__assume"
(define-fun ada___sparknacl__sign__unpackneg__num__assume () map1
  (osubtract o3 o2))

;; "H"
(assert
  (osubtract__function_guard
    ada___sparknacl__sign__unpackneg__num__assume
    o3
    o2))

;; "H"
(assert (has_bounds ada___sparknacl__sign__unpackneg__num__assume 0 15))

;; "osubtract'result'unused"
(define-fun osubtractqtresultqtunused () map1
  ada___sparknacl__sign__unpackneg__num__assume)

;; "Assume"
(assert (= ada___sparknacl__sign__unpackneg__num__assume num))

;; "Assume"
(assert (has_bounds num 0 15))

;; "o"
(define-fun o4 () map1
  gf_d)

;; "o"
(define-fun o5 () map1
  r1_squared)

;; "o"
(define-fun o6 () map1
  (omultiply o5 o4))

;; "H"
(assert (omultiply__function_guard o6 o5 o4))

;; "H"
(assert (has_bounds o6 0 15))

;; "omultiply'result'unused"
(define-fun omultiplyqtresultqtunused () map1
  o6)

;; "o"
(define-fun o7 () map1
  gf_1)

;; "ada___sparknacl__sign__unpackneg__den__assume"
(define-fun ada___sparknacl__sign__unpackneg__den__assume () map1
  (oadd o7 o6))

;; "H"
(assert
  (oadd__function_guard ada___sparknacl__sign__unpackneg__den__assume o7 o6))

;; "H"
(assert (has_bounds ada___sparknacl__sign__unpackneg__den__assume 0 15))

;; "oadd'result'unused"
(define-fun oaddqtresultqtunused () map1
  ada___sparknacl__sign__unpackneg__den__assume)

;; "Assume"
(assert (= ada___sparknacl__sign__unpackneg__den__assume den))

;; "Assume"
(assert (has_bounds den 0 15))

;; "o"
(define-fun o8 () map1
  den)

;; "ada___sparknacl__sign__unpackneg__den_power_2__assume"
(define-fun ada___sparknacl__sign__unpackneg__den_power_2__assume () map1
  (square o8))

;; "H"
(assert
  (square__function_guard
    ada___sparknacl__sign__unpackneg__den_power_2__assume
    o8))

;; "H"
(assert
  (has_bounds ada___sparknacl__sign__unpackneg__den_power_2__assume 0 15))

;; "square'result'unused"
(define-fun squareqtresultqtunused1 () map1
  ada___sparknacl__sign__unpackneg__den_power_2__assume)

;; "Assume"
(assert
  (= ada___sparknacl__sign__unpackneg__den_power_2__assume den_power_2))

;; "Assume"
(assert (has_bounds den_power_2 0 15))

;; "o"
(define-fun o9 () map1
  den_power_2)

;; "ada___sparknacl__sign__unpackneg__den_power_4__assume"
(define-fun ada___sparknacl__sign__unpackneg__den_power_4__assume () map1
  (square o9))

;; "H"
(assert
  (square__function_guard
    ada___sparknacl__sign__unpackneg__den_power_4__assume
    o9))

;; "H"
(assert
  (has_bounds ada___sparknacl__sign__unpackneg__den_power_4__assume 0 15))

;; "square'result'unused"
(define-fun squareqtresultqtunused2 () map1
  ada___sparknacl__sign__unpackneg__den_power_4__assume)

;; "Assume"
(assert
  (= ada___sparknacl__sign__unpackneg__den_power_4__assume den_power_4))

;; "Assume"
(assert (has_bounds den_power_4 0 15))

;; "o"
(define-fun o10 () map1
  den_power_2)

;; "o"
(define-fun o11 () map1
  den)

;; "o"
(define-fun o12 () map1
  num)

;; "o"
(define-fun o13 () map1
  (omultiply o12 o11))

;; "H"
(assert (omultiply__function_guard o13 o12 o11))

;; "H"
(assert (has_bounds o13 0 15))

;; "omultiply'result'unused"
(define-fun omultiplyqtresultqtunused1 () map1
  o13)

;; "ada___sparknacl__sign__unpackneg__num_den2__assume"
(define-fun ada___sparknacl__sign__unpackneg__num_den2__assume () map1
  (omultiply o13 o10))

;; "H"
(assert
  (omultiply__function_guard
    ada___sparknacl__sign__unpackneg__num_den2__assume
    o13
    o10))

;; "H"
(assert (has_bounds ada___sparknacl__sign__unpackneg__num_den2__assume 0 15))

;; "omultiply'result'unused"
(define-fun omultiplyqtresultqtunused2 () map1
  ada___sparknacl__sign__unpackneg__num_den2__assume)

;; "Assume"
(assert (= ada___sparknacl__sign__unpackneg__num_den2__assume num_den2))

;; "Assume"
(assert (has_bounds num_den2 0 15))

;; "o"
(define-fun o14 () map1
  num_den2)

;; "o"
(define-fun o15 () map1
  num_den2)

;; "o"
(define-fun o16 () map1
  den_power_4)

;; "o"
(define-fun o17 () map1
  (omultiply o16 o15))

;; "H"
(assert (omultiply__function_guard o17 o16 o15))

;; "H"
(assert (has_bounds o17 0 15))

;; "omultiply'result'unused"
(define-fun omultiplyqtresultqtunused3 () map1
  o17)

;; "o"
(define-fun o18 () map1
  (pow_2523 o17))

;; "H"
(assert (pow_2523__function_guard o18 o17))

;; "H"
(assert (has_bounds o18 0 15))

;; "pow_2523'result'unused"
(define-fun pow_2523qtresultqtunused () map1
  o18)

;; "o"
(define-fun o19 () map1
  (omultiply o18 o14))

;; "H"
(assert (omultiply__function_guard o19 o18 o14))

;; "H"
(assert (has_bounds o19 0 15))

;; "omultiply'result'unused"
(define-fun omultiplyqtresultqtunused4 () map1
  o19)

(declare-const r0 map1)

;; "r0'unused"
(define-fun r0qtunused () map__ref
  (map__refqtmk r0))

;; "H"
(assert (= r0 o19))

;; "Assume"
(assert (has_bounds r0 0 15))

;; "Assume"
(assert true)

;; "Assume"
(assert (has_bounds check__ 0 15))

;; "o"
(define-fun o20 () map1
  den)

;; "map__content'result'unused"
(define-fun map__contentqtresultqtunused () map1
  r0)

;; "o"
(define-fun o21 () map1
  (square r0))

;; "H"
(assert (square__function_guard o21 r0))

;; "H"
(assert (has_bounds o21 0 15))

;; "square'result'unused"
(define-fun squareqtresultqtunused3 () map1
  o21)

;; "o"
(define-fun o22 () map1
  (omultiply o21 o20))

;; "H"
(assert (omultiply__function_guard o22 o21 o20))

;; "H"
(assert (has_bounds o22 0 15))

;; "omultiply'result'unused"
(define-fun omultiplyqtresultqtunused5 () map1
  o22)

(declare-const check__1 map1)

;; "check__'unused"
(define-fun check__qtunused1 () map__ref
  (map__refqtmk check__1))

;; "H"
(assert (= check__1 o22))

(declare-const spark__branch Bool)

(declare-const r01 map1)

;; "r0'unused"
(define-fun r0qtunused1 () map__ref
  (map__refqtmk r01))

;; "spark__branch'unused"
(define-fun spark__branchqtunused () bool__ref
  (bool__refqtmk spark__branch))

(declare-const map__contentqtresultqtunused1 map1)

;; "H"
(assert (= map__contentqtresultqtunused1 check__1))

(declare-const o23 Bool)

;; "H"
(assert (= o23 (oeq check__1 num)))

(declare-const oeqqtresultqtunused Bool)

;; "H"
(assert (= oeqqtresultqtunused o23))

;; "H"
(assert (= spark__branch (ite (= o23 true) false true)))

(declare-const bool__contentqtresultqtunused Bool)

;; "H"
(assert (= bool__contentqtresultqtunused spark__branch))

(declare-const o24 map1)

(declare-const map__contentqtresultqtunused2 map1)

(declare-const o25 map1)

(declare-const omultiplyqtresultqtunused6 map1)

;; "H"
(assert
  (ite (= spark__branch true)
    (and
      (= o24 gf_i)
      (and
        (= map__contentqtresultqtunused2 r0)
        (and
          (= o25 (omultiply r0 o24))
          (and
            (and
              (omultiply__function_guard o25 r0 o24)
              (has_bounds o25 0 15))
            (and (= omultiplyqtresultqtunused6 o25) (= r01 o25))))))
    (= r01 r0)))

;; "o"
(define-fun o26 () map1
  den)

;; "map__content'result'unused"
(define-fun map__contentqtresultqtunused3 () map1
  r01)

;; "o"
(define-fun o27 () map1
  (square r01))

;; "H"
(assert (square__function_guard o27 r01))

;; "H"
(assert (has_bounds o27 0 15))

;; "square'result'unused"
(define-fun squareqtresultqtunused4 () map1
  o27)

;; "o"
(define-fun o28 () map1
  (omultiply o27 o26))

;; "H"
(assert (omultiply__function_guard o28 o27 o26))

;; "H"
(assert (has_bounds o28 0 15))

;; "omultiply'result'unused"
(define-fun omultiplyqtresultqtunused7 () map1
  o28)

(declare-const check__2 map1)

;; "check__'unused"
(define-fun check__qtunused2 () map__ref
  (map__refqtmk check__2))

;; "H"
(assert (= check__2 o28))

;; "map__content'result'unused"
(define-fun map__contentqtresultqtunused4 () map1
  check__2)

;; "o"
(define-fun o29 () Bool
  (oeq check__2 num))

;; "oeq'result'unused"
(define-fun oeqqtresultqtunused1 () Bool
  o29)

(declare-const spark__branch1 Bool)

;; "spark__branch'unused"
(define-fun spark__branchqtunused1 () bool__ref
  (bool__refqtmk spark__branch1))

;; "H"
(assert (= spark__branch1 (ite (= o29 true) false true)))

;; "bool__content'result'unused"
(define-fun bool__contentqtresultqtunused1 () Bool
  spark__branch1)

;; "H"
(assert (not (= spark__branch1 true)))

;; "o"
(define-fun o30 () byte
  (get2 p 31))

;; "get'result'unused"
(define-fun getqtresultqtunused () byte
  o30)

(declare-const o31 (_ BitVec 8))

;; "Ensures"
(assert (= (to_rep1 o30) o31))

;; "to_rep'result'unused"
(define-fun to_repqtresultqtunused () (_ BitVec 8)
  o31)

;; Goal "def'vc"
;; File "sparknacl-sign.adb", line 92, characters 0-0
(assert
  (not (not (= #x80 #x00))))

(check-sat)
